num_occupants = 20;
num_patients = 79;
horizon = 14;
num_rooms = 13;
oc_length_of_stay = [1, 6, 1, 3, 6, 2, 1, 8, 3, 2, 2, 5, 3, 1, 3, 6, 1, 6, 3, 1];
oc_gender = [2, 1, 2, 2, 2, 2, 2, 2, 2, 2, 2, 2, 2, 2, 2, 1, 2, 1, 2, 2];
oc_room = [9, 8, 3, 3, 6, 11, 2, 11, 2, 1, 12, 10, 2, 1, 2, 8, 6, 8, 4, 6];
length_of_stay = [3, 6, 3, 4, 6, 3, 4, 5, 7, 3, 4, 7, 3, 3, 4, 4, 3, 4, 6, 2, 4, 3, 2, 3, 8, 4, 2, 4, 5, 3, 5, 3, 2, 4, 3, 3, 8, 2, 3, 3, 4, 6, 3, 3, 5, 2, 3, 4, 4, 3, 3, 3, 8, 2, 2, 5, 4, 7, 3, 3, 4, 2, 11, 2, 4, 3, 2, 6, 2, 3, 2, 8, 3, 5, 5, 3, 3, 3, 4];
gender = [2, 1, 2, 2, 2, 1, 2, 1, 1, 1, 1, 1, 2, 1, 1, 2, 2, 1, 1, 2, 2, 2, 2, 2, 2, 1, 1, 2, 2, 1, 2, 2, 2, 2, 1, 2, 2, 1, 1, 1, 1, 1, 1, 2, 2, 1, 1, 2, 1, 1, 2, 2, 1, 2, 1, 1, 1, 1, 1, 1, 1, 1, 2, 2, 2, 2, 1, 1, 1, 2, 1, 2, 1, 2, 1, 1, 1, 1, 2];
max_incompatible = 5;
incompatible_rooms = [|2, 6, 0, 0, 0 | 2, 0, 0, 0, 0 | 3, 6, 7, 0, 0 | 4, 0, 0, 0, 0 | 4, 6, 13, 0, 0 | 4, 0, 0, 0, 0 | 5, 9, 0, 0, 0 | 6, 7, 0, 0, 0 | 0, 0, 0, 0, 0 | 1, 0, 0, 0, 0 | 2, 11, 0, 0, 0 | 3, 5, 0, 0, 0 | 8, 0, 0, 0, 0 | 1, 0, 0, 0, 0 | 1, 4, 0, 0, 0 | 2, 12, 0, 0, 0 | 0, 0, 0, 0, 0 | 0, 0, 0, 0, 0 | 2, 8, 0, 0, 0 | 1, 2, 4, 5, 0 | 3, 0, 0, 0, 0 | 0, 0, 0, 0, 0 | 4, 0, 0, 0, 0 | 0, 0, 0, 0, 0 | 11, 13, 0, 0, 0 | 1, 0, 0, 0, 0 | 10, 0, 0, 0, 0 | 0, 0, 0, 0, 0 | 4, 9, 0, 0, 0 | 0, 0, 0, 0, 0 | 1, 9, 0, 0, 0 | 8, 0, 0, 0, 0 | 5, 6, 8, 12, 0 | 0, 0, 0, 0, 0 | 4, 0, 0, 0, 0 | 0, 0, 0, 0, 0 | 0, 0, 0, 0, 0 | 4, 5, 0, 0, 0 | 2, 0, 0, 0, 0 | 0, 0, 0, 0, 0 | 0, 0, 0, 0, 0 | 3, 0, 0, 0, 0 | 0, 0, 0, 0, 0 | 0, 0, 0, 0, 0 | 0, 0, 0, 0, 0 | 0, 0, 0, 0, 0 | 10, 0, 0, 0, 0 | 7, 9, 0, 0, 0 | 2, 4, 5, 10, 0 | 7, 9, 11, 0, 0 | 0, 0, 0, 0, 0 | 1, 5, 8, 12, 0 | 7, 10, 0, 0, 0 | 13, 0, 0, 0, 0 | 3, 11, 0, 0, 0 | 3, 0, 0, 0, 0 | 4, 7, 10, 0, 0 | 10, 0, 0, 0, 0 | 2, 4, 0, 0, 0 | 1, 0, 0, 0, 0 | 2, 7, 8, 9, 12 | 3, 0, 0, 0, 0 | 1, 3, 11, 0, 0 | 9, 0, 0, 0, 0 | 4, 0, 0, 0, 0 | 13, 0, 0, 0, 0 | 4, 0, 0, 0, 0 | 5, 0, 0, 0, 0 | 11, 0, 0, 0, 0 | 0, 0, 0, 0, 0 | 8, 0, 0, 0, 0 | 4, 9, 11, 0, 0 | 4, 0, 0, 0, 0 | 4, 0, 0, 0, 0 | 2, 5, 0, 0, 0 | 4, 0, 0, 0, 0 | 7, 0, 0, 0, 0 | 4, 0, 0, 0, 0 | 0, 0, 0, 0, 0|];
mandatory = [true, false, false, false, false, true, true, false, true, false, false, true, false, true, true, false, true, false, false, false, true, false, false, true, true, false, false, true, false, false, false, false, false, false, false, true, true, false, false, false, true, true, false, false, true, false, false, false, false, false, false, false, false, false, false, false, true, false, false, true, false, false, false, false, false, false, false, false, true, true, false, true, false, true, true, true, false, false, false];
surgery_duration = [180, 120, 90, 60, 60, 90, 120, 120, 120, 120, 60, 90, 180, 120, 120, 90, 180, 240, 120, 120, 120, 90, 90, 60, 120, 120, 60, 90, 120, 60, 60, 180, 90, 120, 120, 120, 60, 60, 180, 180, 90, 60, 90, 120, 60, 90, 120, 180, 90, 180, 90, 180, 180, 60, 90, 180, 90, 60, 90, 90, 90, 60, 180, 90, 90, 180, 60, 120, 60, 90, 120, 60, 90, 300, 90, 90, 90, 180, 120];
surgeon = [1, 2, 2, 1, 1, 1, 3, 1, 3, 2, 2, 3, 3, 2, 3, 2, 2, 3, 3, 1, 3, 1, 2, 2, 1, 1, 2, 2, 1, 1, 2, 1, 1, 1, 2, 2, 2, 1, 1, 3, 2, 1, 1, 2, 2, 2, 3, 1, 2, 2, 2, 3, 2, 1, 2, 3, 2, 2, 2, 1, 3, 1, 3, 2, 2, 1, 2, 1, 1, 1, 1, 1, 2, 3, 1, 2, 1, 1, 1];
num_surgeons = 3;
max_surgery = array2d(1..3, 0..13, [|0, 480, 0, 480, 360, 0, 0, 480, 480, 360, 0, 360, 0, 480 | 0, 0, 360, 480, 480, 0, 360, 360, 360, 480, 360, 480, 360, 0 | 0, 0, 0, 480, 360, 0, 0, 360, 480, 480, 0, 480, 0, 480|]);
release_day = [1, 4, 12, 1, 3, 4, 4, 7, 3, 7, 4, 3, 9, 2, 3, 3, 9, 4, 3, 1, 4, 1, 2, 3, 1, 1, 3, 4, 3, 1, 3, 1, 7, 1, 4, 4, 3, 1, 1, 7, 8, 3, 4, 9, 3, 2, 4, 1, 3, 2, 4, 13, 2, 1, 2, 7, 2, 4, 4, 7, 8, 3, 8, 2, 8, 1, 2, 3, 13, 1, 3, 4, 10, 7, 7, 3, 1, 11, 4];
due_day = [13, 14, 14, 14, 14, 9, 13, 14, 13, 14, 14, 8, 14, 11, 3, 14, 10, 14, 14, 14, 13, 14, 14, 11, 13, 14, 14, 10, 14, 14, 14, 14, 14, 14, 14, 12, 12, 14, 14, 14, 12, 13, 14, 14, 11, 14, 14, 14, 14, 14, 14, 14, 14, 14, 14, 14, 3, 14, 14, 13, 14, 14, 14, 14, 14, 14, 14, 14, 13, 13, 14, 11, 14, 11, 13, 9, 14, 14, 14];
capacity = [4, 4, 2, 2, 3, 4, 4, 3, 4, 2, 2, 2, 4];
num_ot = 4;
max_ot = array2d(1..4, 0..13, [|600, 600, 600, 600, 720, 0, 720, 600, 600, 720, 720, 720, 600, 0 | 720, 720, 600, 480, 600, 480, 480, 480, 600, 720, 0, 720, 480, 600 | 600, 600, 720, 600, 600, 720, 0, 480, 720, 480, 600, 720, 720, 600 | 720, 480, 0, 720, 480, 0, 0, 720, 600, 600, 720, 600, 600, 720|]);
weight_selection = 450;
weight_delay = 10;
